c
c start with comments
c
p cnf 23 19
-20 -19 -21 0
-14 9 6 3 -11 0
6 24 9 -12 -10 0
-21 -3 -16 0
23 21 6 0
2 -24 -3 -20 -14 -3 0
23 15 -10 0
2 3 23 -8 -14 0
18 14 -7 0
-22 4 7 10 4 0
8 11 0
-9 -4 0
-7 23 -17 0
21 -17 12 0
-23 -17 20 18 0
-13 17 -19 0
12 6 -16 24 0
-8 -17 18 22 0
-10 -8 18 9 -24 5 0